4 100 2267
5 6 5 12 8 9 9 9 4 12
4 1 2 4
1 5 8 4
6
3 1
2 9 6 1
0 35.0 35.0 0.0 0.0 0 230
2 41.0 49.0 10.0 10.0 15 204 48 0 0 0 0 0 0 0 1 0 1
3 35.0 17.0 10.0 7.0 18 202 78 0 1 0 0 0 0 0 0 0 0
4 55.0 45.0 10.0 13.0 54 187 88 0 0 0 0 0 0 0 0 0 1
5 55.0 20.0 10.0 19.0 138 169 1 0 0 0 0 0 1 0 0 0 1
6 15.0 30.0 10.0 26.0 20 199 67 0 0 0 0 0 1 1 0 0 0
7 25.0 30.0 10.0 3.0 76 131 87 0 0 0 0 1 0 1 0 0 1
8 20.0 50.0 10.0 5.0 21 170 33 0 1 0 0 0 0 0 0 1 1
9 10.0 43.0 10.0 9.0 87 112 77 0 0 0 0 1 0 1 1 0 0
10 55.0 60.0 10.0 16.0 88 115 96 0 0 0 0 0 0 1 0 1 0
11 30.0 60.0 10.0 16.0 107 150 48 0 0 0 0 0 0 0 0 1 0
12 20.0 65.0 10.0 12.0 57 86 56 0 0 0 0 0 1 1 0 0 0
13 50.0 35.0 10.0 19.0 15 192 42 0 0 0 0 0 1 0 0 0 0
14 30.0 25.0 10.0 23.0 147 180 89 1 1 0 0 0 0 0 1 0 0
15 15.0 10.0 10.0 20.0 32 187 90 0 0 1 1 0 1 1 1 1 1
16 30.0 5.0 10.0 8.0 50 81 14 0 0 1 0 1 0 0 1 0 0
17 10.0 20.0 10.0 19.0 29 139 11 1 0 1 0 0 0 0 1 0 0
18 5.0 30.0 10.0 2.0 124 189 45 0 0 1 0 1 0 0 0 0 0
19 20.0 40.0 10.0 12.0 47 136 77 0 0 0 1 0 0 0 0 0 0
20 15.0 60.0 10.0 17.0 32 146 39 0 0 1 0 1 1 0 0 0 0
21 45.0 65.0 10.0 9.0 79 182 88 0 0 0 0 0 1 0 0 0 0
22 45.0 20.0 10.0 11.0 18 195 61 0 0 0 0 0 0 1 0 0 1
23 45.0 10.0 10.0 18.0 76 127 51 0 1 0 1 1 0 1 0 0 0
24 55.0 5.0 10.0 29.0 58 87 26 0 0 0 0 0 0 0 1 0 0
25 65.0 35.0 10.0 3.0 58 190 30 0 0 1 0 0 0 0 0 0 0
26 65.0 20.0 10.0 6.0 153 186 1 0 1 0 0 0 0 0 0 0 0
27 45.0 30.0 10.0 17.0 58 208 30 0 0 0 0 0 1 1 0 0 1
28 35.0 40.0 10.0 16.0 8 75 37 0 0 0 1 0 0 1 0 0 1
29 41.0 37.0 10.0 16.0 6 136 75 0 0 0 1 0 0 0 0 0 0
30 64.0 42.0 10.0 9.0 29 150 51 0 0 0 0 0 1 0 0 0 0
31 40.0 60.0 10.0 21.0 49 102 37 0 0 0 1 0 0 0 1 0 0
32 31.0 52.0 10.0 27.0 17 198 33 0 0 0 1 0 0 0 1 0 0
33 35.0 69.0 10.0 23.0 67 186 59 0 1 1 1 1 0 0 1 1 0
34 53.0 52.0 10.0 11.0 24 92 48 0 0 0 0 0 1 0 0 0 0
35 65.0 55.0 10.0 14.0 36 183 15 0 0 0 0 0 0 0 0 0 1
36 63.0 65.0 10.0 8.0 116 178 51 0 0 0 0 0 0 1 0 1 0
37 2.0 60.0 10.0 5.0 41 112 53 0 0 0 0 0 0 1 0 0 1
38 20.0 20.0 10.0 8.0 42 198 96 0 0 0 0 0 1 0 0 0 0
39 5.0 5.0 10.0 16.0 74 101 87 0 1 0 0 0 1 0 0 0 0
40 60.0 12.0 10.0 31.0 33 110 13 0 0 0 0 0 1 0 0 0 0
41 40.0 25.0 10.0 9.0 65 114 16 0 0 0 1 1 0 1 0 0 1
42 42.0 7.0 10.0 5.0 72 131 5 0 0 0 0 0 0 0 1 0 0
43 24.0 12.0 10.0 5.0 25 91 0 1 1 1 0 0 0 0 0 0 1
44 23.0 3.0 10.0 7.0 82 185 24 1 0 0 0 0 1 0 0 0 0
45 11.0 14.0 10.0 18.0 59 88 85 0 0 0 0 0 1 0 0 0 0
46 6.0 38.0 10.0 16.0 29 99 41 1 0 0 0 0 0 0 0 0 0
47 2.0 48.0 10.0 1.0 63 180 17 0 0 0 0 1 0 0 0 0 0
48 8.0 56.0 10.0 27.0 34 176 6 0 0 0 0 0 0 0 0 1 0
49 13.0 52.0 10.0 36.0 27 192 48 0 0 0 0 1 0 0 0 0 0
50 6.0 68.0 10.0 30.0 93 132 61 0 0 0 0 0 1 0 0 0 1
51 47.0 47.0 10.0 13.0 41 203 90 0 0 0 0 0 1 0 0 0 0
52 49.0 58.0 10.0 10.0 36 149 49 0 1 1 0 0 0 1 1 0 0
53 27.0 43.0 10.0 9.0 11 195 83 0 0 0 0 0 1 0 0 0 0
54 37.0 31.0 10.0 14.0 87 112 78 0 0 0 0 0 1 0 0 0 0
55 57.0 29.0 10.0 18.0 90 197 27 0 0 0 0 0 1 0 0 0 0
56 63.0 23.0 10.0 2.0 126 155 22 0 0 0 0 0 1 1 1 0 0
57 53.0 12.0 10.0 6.0 106 163 26 1 0 0 1 0 0 0 0 0 0
58 32.0 12.0 10.0 7.0 48 163 57 0 0 0 0 1 0 0 1 1 0
59 36.0 26.0 10.0 18.0 178 210 5 0 0 0 0 0 0 0 0 0 1
60 21.0 24.0 10.0 28.0 17 202 45 1 0 0 0 0 0 0 0 0 1
61 17.0 34.0 10.0 3.0 70 201 52 0 0 0 0 0 0 0 0 1 0
62 12.0 24.0 10.0 13.0 29 132 55 0 0 0 0 0 1 1 0 0 0
63 24.0 58.0 10.0 19.0 46 79 86 1 0 0 0 0 0 0 0 0 1
64 27.0 69.0 10.0 10.0 34 172 46 1 0 0 0 0 0 0 0 0 1
65 15.0 77.0 10.0 9.0 48 107 38 0 0 0 1 0 0 0 0 1 0
66 62.0 77.0 10.0 20.0 49 113 44 0 0 0 0 0 0 1 0 0 0
67 49.0 73.0 10.0 25.0 104 159 84 0 0 0 0 0 0 0 1 0 0
68 67.0 5.0 10.0 25.0 73 102 93 0 0 1 0 0 0 0 0 1 0
69 56.0 39.0 10.0 36.0 117 176 72 0 1 0 1 0 0 1 0 0 0
70 37.0 47.0 10.0 6.0 39 70 2 0 0 0 0 0 0 0 0 0 1
71 37.0 56.0 10.0 5.0 123 198 20 1 0 0 1 0 0 0 0 0 0
72 57.0 68.0 10.0 15.0 39 148 67 0 0 0 0 1 0 0 1 1 0
73 47.0 16.0 10.0 25.0 22 197 41 0 0 0 1 1 0 0 0 0 0
74 44.0 17.0 10.0 9.0 30 135 54 0 0 0 1 0 0 0 0 0 0
75 46.0 13.0 10.0 8.0 138 169 30 0 0 1 0 0 0 1 0 0 0
76 49.0 11.0 10.0 18.0 27 192 8 0 1 0 0 1 0 0 0 1 0
77 49.0 42.0 10.0 13.0 65 90 17 0 0 0 0 0 1 0 0 0 0
78 53.0 43.0 10.0 14.0 168 199 34 0 0 1 0 0 0 0 1 0 0
79 61.0 52.0 10.0 3.0 71 130 57 0 1 0 1 0 0 0 0 1 0
80 57.0 48.0 10.0 23.0 84 109 90 0 0 1 0 0 0 0 0 0 0
81 56.0 37.0 10.0 6.0 135 198 94 0 0 1 0 0 0 0 0 0 0
82 55.0 54.0 10.0 26.0 57 140 62 0 0 0 1 0 1 0 0 0 0
83 15.0 47.0 10.0 16.0 23 196 73 1 0 0 0 1 0 0 1 0 0
84 14.0 37.0 10.0 11.0 21 198 48 0 0 0 0 0 1 0 0 0 0
85 11.0 31.0 10.0 7.0 93 118 70 0 1 0 0 0 0 0 0 1 0
86 16.0 22.0 10.0 41.0 23 177 9 0 0 0 0 0 0 0 0 0 1
87 4.0 18.0 10.0 35.0 49 148 40 0 0 0 0 0 0 1 0 0 0
88 28.0 18.0 10.0 26.0 88 107 68 0 0 0 0 0 1 0 0 0 0
89 26.0 52.0 10.0 9.0 50 107 17 1 0 0 1 1 1 1 0 1 0
90 26.0 35.0 10.0 15.0 68 211 77 0 0 0 0 0 0 0 0 0 1
91 31.0 67.0 10.0 3.0 46 153 79 0 0 1 0 0 0 0 0 0 1
92 15.0 19.0 10.0 1.0 25 194 83 0 0 0 0 0 0 1 0 0 1
93 22.0 22.0 10.0 2.0 18 53 27 0 0 0 0 1 0 0 0 0 1
94 18.0 24.0 10.0 22.0 129 199 59 0 0 0 0 0 1 0 0 0 0
95 26.0 27.0 10.0 27.0 35 174 74 0 0 0 0 0 1 0 0 0 0
96 25.0 24.0 10.0 20.0 14 205 69 0 0 0 0 0 1 0 0 0 0
97 22.0 27.0 10.0 11.0 51 204 2 1 0 0 0 0 0 0 0 0 0
98 25.0 21.0 10.0 12.0 92 183 72 0 0 0 0 1 0 0 1 1 0
99 19.0 21.0 10.0 10.0 21 198 47 0 0 0 1 1 0 0 0 0 0
100 20.0 26.0 10.0 9.0 74 101 66 1 0 0 0 0 1 1 0 0 1
101 18.0 18.0 10.0 17.0 159 195 29 1 1 0 0 0 0 0 0 0 0